1 1 -2 0
1 -1 3 0
1 -1 4 0
1 1 -5 0
1 -1 6 0
1 2 -4 0
1 2 1 0
1 -2 7 0
1 -8 -9 0
1 -8 -10 0
1 -8 3 0
1 8 4 0
1 8 11 0
1 8 -12 0
1 -8 13 0
1 8 6 0
1 10 14 0
1 10 8 0
1 -10 7 0
1 10 6 0
1 4 15 0
1 4 2 0
1 4 -16 0
1 4 -17 0
1 -4 6 0
1 6 -18 0
1 6 4 0
1 -6 19 0
1 -3 -10 0
1 3 20 0
1 3 21 0
1 -3 -22 0
1 3 -1 0
1 7 -18 0
1 -7 23 0
1 7 -24 0
1 -7 2 0
1 7 8 0
1 -7 1 0
1 -17 -9 0
1 17 25 0
1 17 26 0
1 17 -4 0
1 -17 -22 0
1 17 -6 0
1 -26 -24 0
1 26 12 0
1 -26 17 0
1 -26 6 0
1 19 25 0
1 -19 15 0
1 19 -27 0
1 19 -28 0
1 19 -11 0
1 19 -12 0
1 -19 29 0
1 -19 30 0
1 -15 9 0
1 -15 -23 0
1 -15 19 0
1 12 -31 0
1 12 -25 0
1 -12 26 0
1 -12 10 0
1 -12 -17 0
1 -25 -31 0
1 -25 32 0
1 -25 15 0
1 25 26 0
1 25 -10 0
1 25 -33 0
1 -25 34 0
1 25 -35 0
1 25 12 0
1 25 -8 0
1 25 36 0
1 -11 -37 0
1 -11 26 0
1 11 -10 0
1 11 -33 0
1 -11 16 0
1 -11 8 0
1 9 -26 0
1 -9 -10 0
1 -9 38 0
1 9 -19 0
1 -9 17 0
1 -9 8 0
1 35 -32 0
1 -35 -28 0
1 -35 -16 0
1 -35 29 0
1 -32 -25 0
1 32 27 0
1 32 35 0
1 -34 25 0
1 -34 -27 0
1 34 38 0
1 -34 12 0
1 -34 -30 0
1 -31 -37 0
1 31 -34 0
1 31 29 0
1 31 30 0
1 30 -32 0
1 -30 34 0
1 -30 35 0
1 30 -19 0
1 30 -39 0
1 28 -31 0
1 28 40 0
1 -28 -35 0
1 -28 -19 0
1 -29 -32 0
1 -29 -27 0
1 -29 41 0
1 29 33 0
1 29 34 0
1 -29 35 0
1 29 -42 0
1 29 43 0
1 29 36 0
1 -27 32 0
1 27 -35 0
1 -27 29 0
1 27 -43 0
1 -27 -36 0
1 -5 -44 0
1 -5 45 0
1 5 -46 0
1 -5 47 0
1 -48 -44 0
1 48 -45 0
1 48 49 0
1 -13 -44 0
1 13 -50 0
1 -13 47 0
1 13 -51 0
1 13 -52 0
1 14 45 0
1 14 53 0
1 -14 50 0
1 14 54 0
1 -14 47 0
1 -45 -55 0
1 -45 56 0
1 45 -14 0
1 45 -47 0
1 -45 -21 0
1 -45 22 0
1 -45 -13 0
1 -45 5 0
1 -47 -24 0
1 -47 14 0
1 -47 48 0
1 47 -57 0
1 -47 58 0
1 -47 -22 0
1 47 13 0
1 44 59 0
1 -44 -48 0
1 -44 -58 0
1 -44 -60 0
1 44 61 0
1 -44 -13 0
1 -44 -5 0
1 -46 44 0
1 -46 -55 0
1 46 14 0
1 -46 48 0
1 -46 62 0
1 -46 58 0
1 46 60 0
1 -46 -61 0
1 46 5 0
1 -22 -45 0
1 22 24 0
1 22 3 0
1 22 47 0
1 -22 -51 0
1 22 -63 0
1 22 -17 0
1 22 -61 0
1 -22 -7 0
1 -24 45 0
1 -24 53 0
1 24 -50 0
1 -24 3 0
1 -24 -47 0
1 -24 51 0
1 -24 22 0
1 -24 -7 0
1 -21 50 0
1 -21 64 0
1 -21 -51 0
1 21 -7 0
1 -23 -63 0
1 -23 -45 0
1 -23 53 0
1 -23 50 0
1 23 -47 0
1 -23 65 0
1 -23 66 0
1 50 -67 0
1 50 -63 0
1 -50 -23 0
1 -50 -14 0
1 50 68 0
1 -50 22 0
1 63 67 0
1 -63 24 0
1 -63 68 0
1 63 -16 0
1 63 -21 0
1 -63 22 0
1 -53 -69 0
1 -53 -55 0
1 -53 68 0
1 -53 70 0
1 -53 -51 0
1 53 13 0
1 51 69 0
1 51 55 0
1 -51 -24 0
1 -51 -68 0
1 -51 70 0
1 51 21 0
1 51 -13 0
1 -16 9 0
1 -16 -50 0
1 -16 71 0
1 -16 -4 0
1 -16 11 0
1 16 -7 0
1 -18 -9 0
1 18 -32 0
1 18 55 0
1 -18 50 0
1 18 71 0
1 18 -64 0
1 -18 11 0
1 -18 -63 0
1 -18 -66 0
1 -18 -7 0
1 38 72 0
1 -38 50 0
1 38 64 0
1 38 -20 0
1 -38 -73 0
1 -38 -74 0
1 -37 9 0
1 -37 73 0
1 -37 -11 0
1 -37 -63 0
1 -37 66 0
1 -37 74 0
1 -64 -18 0
1 64 23 0
1 64 -75 0
1 64 -41 0
1 -64 -38 0
1 -64 16 0
1 64 21 0
1 -64 76 0
1 -64 43 0
1 -64 36 0
1 66 -37 0
1 -66 -23 0
1 -66 64 0
1 66 75 0
1 66 -33 0
1 66 38 0
1 66 -21 0
1 -66 -43 0
1 -71 -37 0
1 -71 18 0
1 -71 -77 0
1 -71 75 0
1 -71 68 0
1 -71 -16 0
1 -71 21 0
1 71 -76 0
1 71 78 0
1 65 67 0
1 65 23 0
1 65 -75 0
1 65 79 0
1 65 -68 0
1 65 -38 0
1 -65 21 0
1 65 80 0
1 65 -76 0
1 -65 78 0
1 33 -72 0
1 33 64 0
1 33 -20 0
1 33 -68 0
1 -33 -73 0
1 33 12 0
1 33 29 0
1 33 66 0
1 -33 74 0
1 -36 -67 0
1 36 -72 0
1 -36 -11 0
1 -36 -12 0
1 36 -29 0
1 36 66 0
1 -36 -74 0
1 -41 81 0
1 -41 -82 0
1 -41 -27 0
1 -41 -79 0
1 -41 73 0
1 -41 -66 0
1 -41 43 0
1 43 -72 0
1 43 81 0
1 -43 -82 0
1 43 41 0
1 -43 -20 0
1 43 29 0
1 43 74 0
1 -73 -37 0
1 -73 -40 0
1 73 83 0
1 73 -38 0
1 73 -84 0
1 73 -42 0
1 73 43 0
1 -72 -37 0
1 72 85 0
1 72 86 0
1 -72 -40 0
1 72 41 0
1 -72 -73 0
1 72 -87 0
1 -72 84 0
1 72 -43 0
1 72 36 0
1 -20 -75 0
1 -20 41 0
1 20 43 0
1 20 -36 0
1 74 -85 0
1 -74 88 0
1 -74 -75 0
1 -74 20 0
1 -74 33 0
1 74 7 0
1 74 76 0
1 -74 43 0
1 -74 -36 0
1 -40 -27 0
1 -40 -28 0
1 -40 89 0
1 -40 30 0
1 42 72 0
1 42 82 0
1 -42 27 0
1 42 -28 0
1 -42 -40 0
1 -42 -90 0
1 42 -29 0
1 -42 30 0
1 -86 -81 0
1 86 82 0
1 -86 -84 0
1 86 -88 0
1 -86 -89 0
1 86 90 0
1 86 -91 0
1 -86 39 0
1 84 81 0
1 84 92 0
1 84 73 0
1 -84 -89 0
1 -84 90 0
1 -84 91 0
1 84 -39 0
1 -84 -93 0
1 -90 -94 0
1 90 95 0
1 90 -40 0
1 -90 -41 0
1 90 96 0
1 -90 -97 0
1 90 -42 0
1 90 43 0
1 -82 -25 0
1 82 94 0
1 -82 95 0
1 82 41 0
1 82 98 0
1 -82 90 0
1 82 -42 0
1 89 94 0
1 -89 -99 0
1 89 -11 0
1 89 98 0
1 89 100 0
1 89 -101 0
1 89 -87 0
1 89 -42 0
1 81 85 0
1 81 -86 0
1 -81 98 0
1 -81 101 0
1 81 42 0
1 95 82 0
1 95 92 0
1 95 -102 0
1 -95 39 0
1 102 -92 0
1 102 -90 0
1 -102 -91 0
1 -102 -39 0
1 103 82 0
1 103 104 0
1 103 -99 0
1 103 -92 0
1 -103 96 0
1 103 -90 0
1 -103 -39 0
1 96 90 0
1 -96 101 0
1 -39 -105 0
1 39 103 0
1 39 -86 0
1 -39 -96 0
1 39 -102 0
1 92 105 0
1 -92 -103 0
1 -92 -95 0
1 92 -86 0
1 92 106 0
1 92 -39 0
1 -91 -105 0
1 -91 107 0
1 91 -94 0
1 -91 103 0
1 -91 -104 0
1 91 95 0
1 -91 106 0
1 -91 -108 0
1 -91 98 0
1 91 96 0
1 -91 29 0
1 -91 -84 0
1 104 -107 0
1 -104 -98 0
1 -104 -84 0
1 -109 -110 0
1 -109 5 0
1 49 -109 0
1 -52 110 0
1 52 54 0
1 52 111 0
1 -52 -112 0
1 -52 113 0
1 -54 110 0
1 -54 -114 0
1 54 -14 0
1 54 115 0
1 -54 111 0
1 -54 -116 0
1 54 -112 0
1 54 -52 0
1 -112 -49 0
1 112 60 0
1 112 -117 0
1 -112 61 0
1 -112 -52 0
1 -112 109 0
1 -118 -59 0
1 -118 -61 0
1 111 -119 0
1 -111 110 0
1 -111 49 0
1 111 52 0
1 111 109 0
1 110 120 0
1 110 -54 0
1 110 49 0
1 -110 -111 0
1 -110 109 0
1 61 -44 0
1 61 -114 0
1 -61 115 0
1 -61 -22 0
1 -59 -44 0
1 59 -24 0
1 59 -115 0
1 -59 -113 0
1 59 -46 0
1 59 61 0
1 59 116 0
1 -60 121 0
1 -60 44 0
1 -60 -122 0
1 -60 118 0
1 -60 -114 0
1 60 -115 0
1 -60 -46 0
1 -60 112 0
1 122 44 0
1 -122 112 0
1 122 -114 0
1 -122 123 0
1 -122 124 0
1 -122 -46 0
1 -122 -60 0
1 122 -125 0
1 116 126 0
1 -116 122 0
1 116 54 0
1 -116 115 0
1 -116 127 0
1 -116 58 0
1 -116 61 0
1 116 52 0
1 116 128 0
1 115 -69 0
1 115 59 0
1 -115 127 0
1 115 -70 0
1 115 58 0
1 -115 52 0
1 -113 -59 0
1 113 54 0
1 -113 -60 0
1 -113 61 0
1 -113 -52 0
1 114 127 0
1 -58 -55 0
1 58 123 0
1 58 -124 0
1 -58 47 0
1 -58 16 0
1 58 -116 0
1 -55 -44 0
1 -55 -18 0
1 -55 -115 0
1 -55 124 0
1 55 -51 0
1 55 -116 0
1 -70 -69 0
1 70 -56 0
1 -70 -53 0
1 -70 123 0
1 -70 124 0
1 -70 -62 0
1 -70 38 0
1 70 51 0
1 -69 -121 0
1 -69 37 0
1 69 129 0
1 69 -53 0
1 -69 115 0
1 69 123 0
1 69 -62 0
1 -69 116 0
1 -69 125 0
1 -121 124 0
1 121 -68 0
1 -121 -58 0
1 -121 78 0
1 -124 67 0
1 124 -121 0
1 124 -69 0
1 -124 -55 0
1 -124 122 0
1 124 -130 0
1 124 131 0
1 124 68 0
1 124 -70 0
1 -124 58 0
1 -124 -132 0
1 -124 78 0
1 125 -126 0
1 -125 -133 0
1 -125 123 0
1 125 -130 0
1 125 -134 0
1 125 -135 0
1 -123 126 0
1 123 -69 0
1 -123 55 0
1 123 -122 0
1 123 -70 0
1 123 -58 0
1 -123 60 0
1 123 135 0
1 68 33 0
1 68 -51 0
1 67 -126 0
1 67 -71 0
1 67 68 0
1 -67 -57 0
1 -67 -51 0
1 -67 36 0
1 -79 -129 0
1 -79 -136 0
1 79 -71 0
1 79 41 0
1 -79 -62 0
1 -79 57 0
1 -79 65 0
1 78 -121 0
1 78 129 0
1 -78 137 0
1 -78 136 0
1 -78 -79 0
1 78 -138 0
1 78 43 0
1 78 135 0
1 56 -69 0
1 56 -139 0
1 56 -88 0
1 56 -70 0
1 56 57 0
1 -56 140 0
1 -56 -93 0
1 -56 -76 0
1 56 78 0
1 -57 -79 0
1 57 140 0
1 129 -44 0
1 -129 69 0
1 -129 141 0
1 -129 -79 0
1 129 70 0
1 129 140 0
1 -62 -67 0
1 -62 -130 0
1 62 79 0
1 62 -68 0
1 -62 46 0
1 -62 70 0
1 62 140 0
1 62 78 0
1 -75 56 0
1 75 136 0
1 -75 71 0
1 75 -40 0
1 75 130 0
1 -75 65 0
1 -75 -66 0
1 75 76 0
1 -75 74 0
1 76 -56 0
1 76 136 0
1 76 -71 0
1 -76 75 0
1 76 57 0
1 -76 65 0
1 -76 -132 0
1 88 -56 0
1 -88 80 0
1 88 136 0
1 -88 86 0
1 88 77 0
1 88 141 0
1 88 -20 0
1 -88 -57 0
1 93 -56 0
1 -93 -137 0
1 -93 -88 0
1 -93 77 0
1 -93 142 0
1 93 -138 0
1 93 -84 0
1 93 -80 0
1 -93 143 0
1 -93 -74 0
1 136 99 0
1 136 -50 0
1 -136 -79 0
1 136 144 0
1 -136 -101 0
1 136 -93 0
1 -136 76 0
1 -145 -146 0
1 145 -85 0
1 145 -88 0
1 145 75 0
1 145 -144 0
1 145 -101 0
1 145 -93 0
1 145 78 0
1 137 -147 0
1 137 148 0
1 137 -149 0
1 137 88 0
1 -137 138 0
1 137 150 0
1 137 140 0
1 -137 -76 0
1 -137 -78 0
1 -138 147 0
1 -138 88 0
1 138 79 0
1 138 51 0
1 138 150 0
1 138 78 0
1 -85 -81 0
1 -85 95 0
1 -85 -142 0
1 85 -20 0
1 -85 73 0
1 -85 -74 0
1 -87 -85 0
1 87 -136 0
1 87 -102 0
1 87 -145 0
1 -87 -80 0
1 87 143 0
1 -99 -151 0
1 99 103 0
1 -99 147 0
1 -99 -136 0
1 -99 -83 0
1 -99 89 0
1 99 -101 0
1 -99 -80 0
1 101 81 0
1 -101 -152 0
1 101 89 0
1 -101 145 0
1 -101 -80 0
1 101 143 0
1 101 -153 0
1 -142 107 0
1 142 99 0
1 142 -88 0
1 -142 -64 0
1 142 -154 0
1 142 -108 0
1 -142 87 0
1 143 -155 0
1 -143 -94 0
1 143 -99 0
1 -143 -85 0
1 -143 88 0
1 143 -156 0
1 -143 -93 0
1 143 -157 0
1 77 146 0
1 -77 -99 0
1 -77 80 0
1 -77 158 0
1 -77 -144 0
1 77 101 0
1 80 -85 0
1 80 77 0
1 -80 -159 0
1 80 101 0
1 -80 -87 0
1 94 -151 0
1 94 -81 0
1 -94 146 0
1 94 152 0
1 94 83 0
1 94 -98 0
1 94 -91 0
1 98 94 0
1 -98 -104 0
1 98 144 0
1 -98 -153 0
1 -107 151 0
1 -107 -160 0
1 -107 161 0
1 107 162 0
1 107 104 0
1 -107 -142 0
1 107 -152 0
1 107 -91 0
1 -107 -143 0
1 107 -153 0
1 -108 107 0
1 108 -161 0
1 108 -162 0
1 108 -142 0
1 108 83 0
1 -108 -100 0
1 -108 -97 0
1 108 -91 0
1 108 143 0
1 -108 153 0
1 -83 107 0
1 -83 94 0
1 83 -99 0
1 83 163 0
1 -83 164 0
1 -83 106 0
1 83 -73 0
1 -83 101 0
1 -83 165 0
1 83 166 0
1 151 72 0
1 -151 -107 0
1 -151 -94 0
1 151 -99 0
1 151 -163 0
1 -151 108 0
1 151 83 0
1 -151 -98 0
1 -151 -165 0
1 151 166 0
1 152 155 0
1 -152 -99 0
1 152 -20 0
1 152 -165 0
1 153 155 0
1 153 107 0
1 153 -163 0
1 -153 167 0
1 153 -152 0
1 -153 -74 0
1 -153 168 0
1 105 155 0
1 -105 151 0
1 -105 -161 0
1 105 -83 0
1 -105 100 0
1 -105 -91 0
1 105 39 0
1 106 151 0
1 106 -104 0
1 -106 83 0
1 106 97 0
1 -106 39 0
1 -166 161 0
1 166 -162 0
1 -166 97 0
1 -166 169 0
1 164 151 0
1 164 -161 0
1 164 -162 0
1 -164 -170 0
1 164 167 0
1 164 -83 0
1 -164 -97 0
1 -164 166 0
1 -97 105 0
1 -97 107 0
1 97 -162 0
1 -97 108 0
1 -162 -105 0
1 162 107 0
1 -162 -171 0
1 162 -164 0
1 -162 -106 0
1 162 -166 0
1 100 -161 0
1 -100 164 0
1 100 -106 0
1 100 -89 0
1 -100 -166 0
1 161 -105 0
1 161 164 0
1 161 108 0
1 161 -100 0
1 -161 165 0
1 172 -162 0
1 -172 173 0
1 172 -97 0
1 172 -174 0
1 -172 165 0
1 173 97 0
1 -173 169 0
1 173 -174 0
1 -173 -172 0
1 -175 162 0
1 175 171 0
1 175 176 0
1 -175 -169 0
1 171 -174 0
1 -171 176 0
1 171 169 0
1 -171 175 0
1 174 176 0
1 174 173 0
1 -174 164 0
1 174 39 0
1 -174 -175 0
1 -176 174 0
1 176 -92 0
1 176 171 0
1 176 -164 0
1 -176 -175 0
1 176 -172 0
1 -176 166 0
1 169 -171 0
1 -169 -173 0
1 169 -164 0
1 -169 -172 0
1 169 166 0
1 170 -173 0
1 170 -175 0
1 -170 172 0
1 127 -126 0
1 -127 -120 0
1 127 119 0
1 127 113 0
1 127 -125 0
1 -126 120 0
1 -126 -114 0
1 -126 -115 0
1 -126 -123 0
1 -126 -117 0
1 126 -116 0
1 -126 -125 0
1 -134 -120 0
1 134 -177 0
1 -134 123 0
1 134 79 0
1 134 -128 0
1 134 -125 0
1 135 123 0
1 -135 -134 0
1 135 -119 0
1 -135 -128 0
1 -117 126 0
1 -117 -177 0
1 -117 178 0
1 117 134 0
1 -117 132 0
1 117 135 0
1 -177 -126 0
1 177 -118 0
1 -177 -179 0
1 -177 141 0
1 177 -130 0
1 -177 -127 0
1 -177 -117 0
1 177 135 0
1 -119 -120 0
1 -119 127 0
1 119 111 0
1 119 180 0
1 119 135 0
1 120 -126 0
1 120 110 0
1 120 -181 0
1 -120 -134 0
1 -120 -127 0
1 -120 135 0
1 -130 -129 0
1 130 182 0
1 130 62 0
1 130 -183 0
1 132 -125 0
1 132 129 0
1 -132 -182 0
1 -132 123 0
1 -132 -130 0
1 132 117 0
1 -132 183 0
1 132 76 0
1 -132 -128 0
1 -141 -182 0
1 -141 88 0
1 141 184 0
1 -141 -185 0
1 -141 -131 0
1 141 -62 0
1 -141 128 0
1 -141 -133 0
1 186 129 0
1 186 182 0
1 186 141 0
1 -186 131 0
1 -186 -93 0
1 -186 128 0
1 -128 187 0
1 128 147 0
1 128 149 0
1 128 -184 0
1 -128 -130 0
1 128 188 0
1 128 -150 0
1 128 140 0
1 -128 189 0
1 184 -187 0
1 -184 147 0
1 -184 149 0
1 184 115 0
1 -184 -141 0
1 184 -190 0
1 -184 -134 0
1 184 -188 0
1 -184 140 0
1 184 186 0
1 -184 -132 0
1 184 -135 0
1 183 182 0
1 183 141 0
1 183 -130 0
1 183 134 0
1 -183 -191 0
1 182 187 0
1 -182 141 0
1 182 192 0
1 -182 134 0
1 -182 -188 0
1 -182 186 0
1 -182 132 0
1 -182 135 0
1 149 56 0
1 -149 -137 0
1 149 -184 0
1 149 131 0
1 149 140 0
1 -149 133 0
1 140 56 0
1 -140 -149 0
1 -140 184 0
1 140 185 0
1 -140 -138 0
1 -140 -87 0
1 -147 193 0
1 147 -194 0
1 -147 137 0
1 -147 99 0
1 147 184 0
1 -147 -195 0
1 147 -150 0
1 -147 -133 0
1 150 137 0
1 -150 184 0
1 150 -185 0
1 -150 -195 0
1 -150 196 0
1 150 133 0
1 193 197 0
1 193 -160 0
1 -193 147 0
1 193 -141 0
1 193 -198 0
1 -193 -159 0
1 193 -144 0
1 193 150 0
1 -193 -186 0
1 131 193 0
1 131 -197 0
1 131 -146 0
1 131 198 0
1 -131 199 0
1 133 -200 0
1 -133 -201 0
1 133 187 0
1 133 -141 0
1 -133 188 0
1 -133 186 0
1 133 -125 0
1 -185 187 0
1 185 -123 0
1 -185 -202 0
1 -185 198 0
1 185 -150 0
1 -185 -186 0
1 -185 -133 0
1 146 -193 0
1 -146 94 0
1 -146 -194 0
1 -146 -139 0
1 146 -136 0
1 146 -77 0
1 -146 131 0
1 146 -144 0
1 146 138 0
1 144 -146 0
1 -144 136 0
1 144 77 0
1 144 131 0
1 -144 -188 0
1 -144 196 0
1 144 145 0
1 144 80 0
1 160 107 0
1 -160 201 0
1 160 -194 0
1 160 -139 0
1 160 -148 0
1 -160 -203 0
1 -160 -77 0
1 -160 -131 0
1 -160 195 0
1 160 80 0
1 159 -193 0
1 -159 -160 0
1 159 -203 0
1 159 108 0
1 -159 -196 0
1 -159 -204 0
1 159 -80 0
1 139 -155 0
1 139 -160 0
1 -139 146 0
1 139 56 0
1 139 147 0
1 139 205 0
1 -139 -167 0
1 139 159 0
1 -139 168 0
1 -196 -155 0
1 196 160 0
1 196 146 0
1 196 -205 0
1 196 156 0
1 196 -159 0
1 -196 -144 0
1 -194 -147 0
1 -194 -205 0
1 -194 198 0
1 -194 144 0
1 195 -197 0
1 195 194 0
1 -195 -146 0
1 -195 -147 0
1 -195 205 0
1 -195 -198 0
1 -155 197 0
1 -155 -139 0
1 -155 -77 0
1 -155 -204 0
1 155 -206 0
1 -155 -80 0
1 -155 -143 0
1 155 -153 0
1 156 139 0
1 156 -142 0
1 156 -106 0
1 -156 -198 0
1 156 -80 0
1 156 -153 0
1 168 -207 0
1 168 -203 0
1 -168 -167 0
1 168 154 0
1 -168 152 0
1 168 204 0
1 168 206 0
1 -168 -157 0
1 -168 166 0
1 -167 -148 0
1 -167 158 0
1 -167 -154 0
1 -167 -152 0
1 167 -204 0
1 167 206 0
1 167 -153 0
1 203 -155 0
1 -203 206 0
1 203 -163 0
1 -203 167 0
1 203 156 0
1 203 -159 0
1 203 -168 0
1 -206 -155 0
1 206 -208 0
1 206 167 0
1 -206 -156 0
1 -206 159 0
1 -206 209 0
1 206 165 0
1 -206 168 0
1 148 -160 0
1 148 167 0
1 148 159 0
1 -148 -204 0
1 -148 -210 0
1 -204 -155 0
1 204 148 0
1 204 -167 0
1 -204 -156 0
1 204 159 0
1 204 -210 0
1 165 -151 0
1 165 163 0
1 -165 -158 0
1 165 -152 0
1 -165 100 0
1 165 -206 0
1 -165 211 0
1 163 -173 0
1 163 -205 0
1 -163 100 0
1 -163 211 0
1 -209 100 0
1 209 -206 0
1 209 -175 0
1 209 210 0
1 209 157 0
1 -208 -171 0
1 -208 -203 0
1 -208 -211 0
1 208 -100 0
1 208 206 0
1 -208 157 0
1 154 163 0
1 -154 142 0
1 154 167 0
1 154 157 0
1 -154 -209 0
1 -154 -165 0
1 157 143 0
1 -157 -165 0
1 -158 -208 0
1 -158 167 0
1 158 -165 0
1 211 -163 0
1 -211 -167 0
1 -211 168 0
1 187 179 0
1 187 -184 0
1 -187 -180 0
1 -187 178 0
1 187 183 0
1 -187 -133 0
1 -188 187 0
1 188 -182 0
1 -188 185 0
1 188 133 0
1 201 -181 0
1 201 192 0
1 -201 -185 0
1 -201 212 0
1 201 180 0
1 -201 178 0
1 201 -189 0
1 -201 133 0
1 -212 181 0
1 212 -192 0
1 212 190 0
1 212 -185 0
1 212 180 0
1 212 178 0
1 212 -189 0
1 178 -197 0
1 -178 201 0
1 178 187 0
1 178 179 0
1 -178 -198 0
1 -178 -188 0
1 178 -117 0
1 179 207 0
1 179 -197 0
1 -179 -201 0
1 179 -187 0
1 -179 -198 0
1 -180 181 0
1 -180 -212 0
1 -181 187 0
1 181 -212 0
1 181 188 0
1 -197 -192 0
1 197 -190 0
1 197 198 0
1 -197 195 0
1 -197 191 0
1 197 -189 0
1 -198 -179 0
1 -198 -192 0
1 -198 190 0
1 -198 195 0
1 198 -189 0
1 198 133 0
1 207 -200 0
1 -207 -179 0
1 -207 192 0
1 207 -190 0
1 207 -195 0
1 -207 -191 0
1 -207 -168 0
1 -213 214 0
1 213 -192 0
1 213 190 0
1 -213 199 0
1 -213 195 0
1 213 191 0
1 -213 -189 0
1 -189 -207 0
1 -189 215 0
1 -189 -190 0
1 -189 213 0
1 189 198 0
1 -189 212 0
1 -189 210 0
1 -190 -197 0
1 -190 201 0
1 -190 -205 0
1 190 -212 0
1 -190 210 0
1 -190 189 0
1 191 207 0
1 -191 -213 0
1 -191 212 0
1 -191 -183 0
1 -192 207 0
1 192 197 0
1 192 -201 0
1 192 -182 0
1 192 -213 0
1 -192 198 0
1 -205 200 0
1 205 194 0
1 -205 190 0
1 -205 -199 0
1 205 196 0
1 -205 189 0
1 -210 -200 0
1 210 148 0
1 210 215 0
1 210 -199 0
1 210 204 0
1 210 -209 0
1 215 200 0
1 215 -214 0
1 215 148 0
1 215 -204 0
1 -215 189 0
1 214 -207 0
1 -214 193 0
1 214 -215 0
1 214 205 0
1 -214 213 0
1 214 199 0
1 -214 -210 0
1 199 -215 0
1 200 213 0
1 200 -202 0
1 200 210 0
1 -202 -207 0
1 202 200 0
1 -202 215 0
1 -202 205 0
1 202 210 0
